% Logging successfully configured
%%%mzn-stat: initTime=0.043140451
%%%mzn-stat: objective=405
%%%mzn-stat: nodes=1766
%%%mzn-stat: restarts=0
%%%mzn-stat: peakDepth=1748
%%%mzn-stat: solveTime=0.017147345
%%%mzn-stat: variables=2591
%%%mzn-stat: propagators=7098
%%%mzn-stat: failures=18
%%%mzn-stat: propagations=32271
%%%mzn-stat: nogoods=18
%%%mzn-stat: numAtomicConstraintsPropagated=0
%%%mzn-stat: circuitNumber4951PropagationsThatFoundConflict=9
%%%mzn-stat: circuitNumber4951TotalFixedEdgesAtConflict=841
%%%mzn-stat: circuitNumber4951NumberOfConflicts=9
%%%mzn-stat: circuitNumber4951PropagationsThatPruned=11
%%%mzn-stat: circuitNumber4951PropagationsTotal=117
%%%mzn-stat: AverageConflictSize=42.72222222222222
%%%mzn-stat: NumUnitNogoodsLearned=0
%%%mzn-stat: AverageLearnedNogoodLength=49.27777777777778
%%%mzn-stat: AverageBacktrackAmount=0
%%%mzn-stat: AverageLbd=48.55555555555556
%%%mzn-stat: 2AutonomousSearchNumBackupCalled=1661
%%%mzn-stat: 2AutonomousSearchNumPredicatesRemoved=0
%%%mzn-stat: 2AutonomousSearchNumCalls=1662
%%%mzn-stat: 2AutonomousSearchNumPredicatesAdded=343
%%%mzn-stat: 2AutonomousSearchAverageSizeOfHeap=0.20637785800240674
%%%mzn-stat: 2AutonomousSearchNumAssignedPredicatesEncountered=343
%%%mzn-stat-end
maxleg = 405;
succ = array1d(1..100,[2, 6, 4, 1, 7, 12, 8, 13, 19, 14, 18, 11, 20, 16, 3, 24, 22, 26, 10, 15, 31, 28, 9, 25, 27, 34, 35, 38, 53, 5, 23, 30, 21, 37, 36, 42, 39, 29, 41, 33, 43, 44, 58, 55, 17, 52, 32, 51, 45, 40, 49, 60, 47, 57, 56, 63, 66, 64, 46, 50, 75, 69, 68, 71, 54, 48, 70, 77, 79, 65, 76, 73, 78, 67, 62, 59, 84, 61, 81, 74, 88, 85, 80, 89, 86, 87, 90, 100, 98, 92, 72, 99, 83, 91, 82, 95, 93, 94, 97, 96]);
% time elapsed: 8.26 s
----------
%%%mzn-stat: initTime=0.043140451
%%%mzn-stat: objective=368
%%%mzn-stat: nodes=3523
%%%mzn-stat: restarts=0
%%%mzn-stat: peakDepth=1748
%%%mzn-stat: solveTime=0.032828519
%%%mzn-stat: variables=2591
%%%mzn-stat: propagators=7098
%%%mzn-stat: failures=29
%%%mzn-stat: propagations=53323
%%%mzn-stat: nogoods=29
%%%mzn-stat: numAtomicConstraintsPropagated=0
%%%mzn-stat: circuitNumber4951PropagationsThatFoundConflict=18
%%%mzn-stat: circuitNumber4951TotalFixedEdgesAtConflict=1682
%%%mzn-stat: circuitNumber4951NumberOfConflicts=18
%%%mzn-stat: circuitNumber4951PropagationsThatPruned=21
%%%mzn-stat: circuitNumber4951PropagationsTotal=228
%%%mzn-stat: AverageConflictSize=52.55172413793103
%%%mzn-stat: NumUnitNogoodsLearned=0
%%%mzn-stat: AverageLearnedNogoodLength=60.51724137931034
%%%mzn-stat: AverageBacktrackAmount=0
%%%mzn-stat: AverageLbd=59.37931034482759
%%%mzn-stat: 2AutonomousSearchNumBackupCalled=3320
%%%mzn-stat: 2AutonomousSearchNumPredicatesRemoved=0
%%%mzn-stat: 2AutonomousSearchNumCalls=3322
%%%mzn-stat: 2AutonomousSearchNumPredicatesAdded=684
%%%mzn-stat: 2AutonomousSearchAverageSizeOfHeap=0.2098133654425045
%%%mzn-stat: 2AutonomousSearchNumAssignedPredicatesEncountered=697
%%%mzn-stat-end
maxleg = 368;
succ = array1d(1..100,[2, 11, 4, 1, 7, 12, 8, 13, 19, 14, 18, 26, 20, 16, 3, 24, 22, 6, 10, 15, 31, 28, 9, 25, 27, 34, 35, 38, 53, 5, 23, 30, 21, 37, 36, 42, 39, 29, 41, 33, 43, 44, 58, 55, 17, 52, 32, 51, 45, 40, 49, 60, 47, 57, 56, 63, 66, 64, 46, 50, 75, 69, 68, 71, 54, 48, 70, 77, 79, 65, 76, 73, 78, 67, 62, 59, 84, 61, 81, 74, 88, 85, 80, 89, 86, 87, 90, 100, 98, 92, 72, 99, 83, 91, 82, 95, 93, 94, 97, 96]);
% time elapsed: 8.28 s
----------
%%%mzn-stat: initTime=0.043140451
%%%mzn-stat: objective=360
%%%mzn-stat: nodes=5180
%%%mzn-stat: restarts=0
%%%mzn-stat: peakDepth=1748
%%%mzn-stat: solveTime=0.048795879
%%%mzn-stat: variables=2591
%%%mzn-stat: propagators=7098
%%%mzn-stat: failures=40
%%%mzn-stat: propagations=74434
%%%mzn-stat: nogoods=40
%%%mzn-stat: numAtomicConstraintsPropagated=0
%%%mzn-stat: circuitNumber4951PropagationsThatFoundConflict=27
%%%mzn-stat: circuitNumber4951TotalFixedEdgesAtConflict=2523
%%%mzn-stat: circuitNumber4951NumberOfConflicts=27
%%%mzn-stat: circuitNumber4951PropagationsThatPruned=31
%%%mzn-stat: circuitNumber4951PropagationsTotal=338
%%%mzn-stat: AverageConflictSize=56.975
%%%mzn-stat: NumUnitNogoodsLearned=0
%%%mzn-stat: AverageLearnedNogoodLength=66.15
%%%mzn-stat: AverageBacktrackAmount=0
%%%mzn-stat: AverageLbd=64.225
%%%mzn-stat: 2AutonomousSearchNumBackupCalled=4880
%%%mzn-stat: 2AutonomousSearchNumPredicatesRemoved=0
%%%mzn-stat: 2AutonomousSearchNumCalls=4883
%%%mzn-stat: 2AutonomousSearchNumPredicatesAdded=1027
%%%mzn-stat: 2AutonomousSearchAverageSizeOfHeap=0.21728445627687898
%%%mzn-stat: 2AutonomousSearchNumAssignedPredicatesEncountered=1061
%%%mzn-stat-end
maxleg = 360;
succ = array1d(1..100,[2, 11, 4, 1, 7, 18, 8, 13, 19, 14, 12, 26, 20, 16, 3, 24, 22, 37, 10, 15, 31, 28, 9, 25, 27, 6, 34, 38, 53, 5, 23, 30, 21, 35, 36, 42, 39, 29, 41, 33, 43, 44, 58, 55, 17, 52, 32, 51, 45, 40, 49, 60, 47, 57, 56, 63, 66, 64, 46, 50, 75, 69, 68, 71, 54, 48, 70, 77, 79, 65, 76, 73, 78, 67, 62, 59, 84, 61, 81, 74, 88, 85, 80, 89, 86, 87, 90, 100, 98, 92, 72, 99, 83, 91, 82, 95, 93, 94, 97, 96]);
% time elapsed: 8.29 s
----------
%%%mzn-stat: initTime=0.043140451
%%%mzn-stat: objective=347
%%%mzn-stat: nodes=6966
%%%mzn-stat: restarts=0
%%%mzn-stat: peakDepth=1748
%%%mzn-stat: solveTime=0.110109389
%%%mzn-stat: variables=2591
%%%mzn-stat: propagators=7098
%%%mzn-stat: failures=111
%%%mzn-stat: propagations=141088
%%%mzn-stat: nogoods=111
%%%mzn-stat: numAtomicConstraintsPropagated=0
%%%mzn-stat: circuitNumber4951PropagationsThatFoundConflict=71
%%%mzn-stat: circuitNumber4951TotalFixedEdgesAtConflict=6615
%%%mzn-stat: circuitNumber4951NumberOfConflicts=71
%%%mzn-stat: circuitNumber4951PropagationsThatPruned=84
%%%mzn-stat: circuitNumber4951PropagationsTotal=582
%%%mzn-stat: AverageConflictSize=46.57657657657658
%%%mzn-stat: NumUnitNogoodsLearned=0
%%%mzn-stat: AverageLearnedNogoodLength=64.53153153153153
%%%mzn-stat: AverageBacktrackAmount=0
%%%mzn-stat: AverageLbd=60.288288288288285
%%%mzn-stat: 2AutonomousSearchNumBackupCalled=6492
%%%mzn-stat: 2AutonomousSearchNumPredicatesRemoved=0
%%%mzn-stat: 2AutonomousSearchNumCalls=6496
%%%mzn-stat: 2AutonomousSearchNumPredicatesAdded=1711
%%%mzn-stat: 2AutonomousSearchAverageSizeOfHeap=0.27139778325123154
%%%mzn-stat: 2AutonomousSearchNumAssignedPredicatesEncountered=1763
%%%mzn-stat-end
maxleg = 347;
succ = array1d(1..100,[2, 11, 4, 1, 7, 18, 8, 13, 19, 14, 12, 26, 20, 16, 3, 24, 22, 37, 10, 15, 31, 28, 9, 25, 27, 6, 34, 38, 53, 5, 23, 30, 21, 35, 36, 42, 39, 29, 41, 33, 43, 44, 58, 55, 17, 52, 32, 51, 45, 40, 49, 60, 47, 57, 56, 63, 66, 64, 46, 50, 75, 69, 68, 71, 54, 48, 70, 77, 79, 65, 76, 73, 78, 67, 62, 59, 84, 61, 81, 74, 96, 85, 80, 100, 86, 87, 90, 98, 91, 92, 82, 99, 83, 72, 89, 95, 93, 94, 97, 88]);
% time elapsed: 8.35 s
----------
%%%mzn-stat: initTime=0.043140451
%%%mzn-stat: objective=336
%%%mzn-stat: nodes=73762
%%%mzn-stat: restarts=0
%%%mzn-stat: peakDepth=1748
%%%mzn-stat: solveTime=31.015954053
%%%mzn-stat: variables=2591
%%%mzn-stat: propagators=7098
%%%mzn-stat: failures=62787
%%%mzn-stat: propagations=35896480
%%%mzn-stat: nogoods=62787
%%%mzn-stat: numAtomicConstraintsPropagated=0
%%%mzn-stat: circuitNumber4951PropagationsThatFoundConflict=1473
%%%mzn-stat: circuitNumber4951TotalFixedEdgesAtConflict=133309
%%%mzn-stat: circuitNumber4951NumberOfConflicts=1473
%%%mzn-stat: circuitNumber4951PropagationsThatPruned=13569
%%%mzn-stat: circuitNumber4951PropagationsTotal=61404
%%%mzn-stat: AverageConflictSize=16.444327647442943
%%%mzn-stat: NumUnitNogoodsLearned=0
%%%mzn-stat: AverageLearnedNogoodLength=50.78129230573208
%%%mzn-stat: AverageBacktrackAmount=0
%%%mzn-stat: AverageLbd=24.665233248920956
%%%mzn-stat: 2AutonomousSearchNumBackupCalled=8068
%%%mzn-stat: 2AutonomousSearchNumPredicatesRemoved=0
%%%mzn-stat: 2AutonomousSearchNumCalls=8073
%%%mzn-stat: 2AutonomousSearchNumPredicatesAdded=3475
%%%mzn-stat: 2AutonomousSearchAverageSizeOfHeap=0.448408274495231
%%%mzn-stat: 2AutonomousSearchNumAssignedPredicatesEncountered=3620
%%%mzn-stat-end
maxleg = 336;
succ = array1d(1..100,[2, 11, 4, 1, 7, 18, 8, 13, 19, 14, 12, 26, 20, 16, 3, 24, 22, 37, 10, 15, 31, 28, 9, 25, 27, 6, 34, 38, 53, 5, 23, 30, 21, 35, 36, 42, 39, 29, 41, 33, 43, 44, 58, 55, 17, 52, 32, 51, 45, 40, 49, 60, 47, 57, 56, 63, 66, 64, 46, 50, 75, 69, 68, 71, 54, 48, 70, 77, 79, 65, 76, 73, 94, 67, 62, 59, 84, 61, 81, 74, 88, 85, 80, 89, 86, 87, 90, 100, 91, 92, 72, 99, 83, 98, 82, 95, 93, 78, 97, 96]);
% time elapsed: 39.27 s
----------
%%%mzn-stat: initTime=0.043140451
%%%mzn-stat: objective=332
%%%mzn-stat: nodes=195399
%%%mzn-stat: restarts=1
%%%mzn-stat: peakDepth=1758
%%%mzn-stat: solveTime=81.042662715
%%%mzn-stat: variables=2591
%%%mzn-stat: propagators=7098
%%%mzn-stat: failures=175593
%%%mzn-stat: propagations=96673893
%%%mzn-stat: nogoods=175593
%%%mzn-stat: numAtomicConstraintsPropagated=0
%%%mzn-stat: circuitNumber4951PropagationsThatFoundConflict=2876
%%%mzn-stat: circuitNumber4951TotalFixedEdgesAtConflict=256585
%%%mzn-stat: circuitNumber4951NumberOfConflicts=2876
%%%mzn-stat: circuitNumber4951PropagationsThatPruned=30861
%%%mzn-stat: circuitNumber4951PropagationsTotal=158321
%%%mzn-stat: AverageConflictSize=15.949058333760457
%%%mzn-stat: NumUnitNogoodsLearned=0
%%%mzn-stat: AverageLearnedNogoodLength=49.655231131081536
%%%mzn-stat: AverageBacktrackAmount=0
%%%mzn-stat: AverageLbd=23.773060429515983
%%%mzn-stat: 2AutonomousSearchNumBackupCalled=9655
%%%mzn-stat: 2AutonomousSearchNumPredicatesRemoved=0
%%%mzn-stat: 2AutonomousSearchNumCalls=9835
%%%mzn-stat: 2AutonomousSearchNumPredicatesAdded=6450
%%%mzn-stat: 2AutonomousSearchAverageSizeOfHeap=20.35729537366548
%%%mzn-stat: 2AutonomousSearchNumAssignedPredicatesEncountered=10789
%%%mzn-stat-end
maxleg = 332;
succ = array1d(1..100,[2, 11, 4, 1, 50, 18, 8, 13, 19, 14, 12, 26, 20, 16, 7, 24, 22, 37, 77, 3, 10, 28, 9, 25, 23, 6, 34, 38, 53, 5, 21, 30, 52, 35, 31, 27, 39, 29, 41, 33, 43, 44, 58, 55, 17, 42, 32, 51, 45, 40, 49, 60, 47, 57, 56, 63, 66, 64, 36, 46, 75, 69, 68, 71, 54, 48, 70, 15, 79, 65, 76, 73, 94, 67, 62, 59, 84, 61, 81, 74, 88, 85, 80, 89, 86, 87, 90, 100, 91, 92, 72, 99, 83, 98, 82, 95, 93, 78, 97, 96]);
% time elapsed: 89.31 s
----------
%%%mzn-stat: initTime=0.043140451
%%%mzn-stat: objective=332
%%%mzn-stat: nodes=3169959
%%%mzn-stat: restarts=1
%%%mzn-stat: peakDepth=1758
%%%mzn-stat: solveTime=1791.441553238
%%%mzn-stat: variables=2591
%%%mzn-stat: propagators=7098
%%%mzn-stat: failures=2941937
%%%mzn-stat: propagations=1670907833
%%%mzn-stat: nogoods=2941937
%%%mzn-stat: numAtomicConstraintsPropagated=0
%%%mzn-stat: circuitNumber4951PropagationsThatFoundConflict=51902
%%%mzn-stat: circuitNumber4951TotalFixedEdgesAtConflict=4621095
%%%mzn-stat: circuitNumber4951NumberOfConflicts=51902
%%%mzn-stat: circuitNumber4951PropagationsThatPruned=439173
%%%mzn-stat: circuitNumber4951PropagationsTotal=2633589
%%%mzn-stat: AverageConflictSize=15.310763622742432
%%%mzn-stat: NumUnitNogoodsLearned=0
%%%mzn-stat: AverageLearnedNogoodLength=48.45963696707305
%%%mzn-stat: AverageBacktrackAmount=0
%%%mzn-stat: AverageLbd=24.961191555087684
%%%mzn-stat: 2AutonomousSearchNumBackupCalled=9655
%%%mzn-stat: 2AutonomousSearchNumPredicatesRemoved=0
%%%mzn-stat: 2AutonomousSearchNumCalls=9835
%%%mzn-stat: 2AutonomousSearchNumPredicatesAdded=8160
%%%mzn-stat: 2AutonomousSearchAverageSizeOfHeap=20.35729537366548
%%%mzn-stat: 2AutonomousSearchNumAssignedPredicatesEncountered=10789
%%%mzn-stat-end
